70
15
11	18	12	11	11	17	19	10	10	16	11	14	19	19	11	18	11	14	15	13	16	18	18	15	15	11	15	14	18	15	19	11	13	17	17	15	13	15	11	17	17	15	18	18	12	16	17	16	16	13	10	15	12	17	13	17	13	12	11	13	12	16	14	19	12	13	17	16	19	11	
0	96	96	0	96	0	0	0	96	96	96	0	0	0	0	
0	0	19	0	0	19	0	0	0	19	0	0	0	19	0	
0	0	11	0	0	11	0	0	11	0	0	0	0	0	11	
42	0	0	42	0	0	0	42	0	0	42	0	0	42	0	
0	78	0	78	0	78	0	0	0	0	0	0	0	0	78	
0	0	0	13	0	0	13	0	0	0	0	0	0	0	0	
67	67	67	0	0	67	67	67	67	0	0	0	0	67	67	
0	0	0	81	0	0	81	0	0	0	0	0	0	0	0	
0	0	0	0	64	0	0	64	0	0	64	0	0	0	0	
0	0	97	0	0	0	97	0	0	0	97	0	0	0	97	
0	0	28	0	0	0	0	0	0	0	0	0	0	0	0	
0	0	0	0	0	12	0	0	0	12	0	0	0	12	12	
0	0	0	0	0	60	0	0	0	0	0	0	60	0	60	
0	24	24	0	0	24	0	0	0	24	0	0	0	0	24	
0	0	0	83	0	0	83	0	83	0	83	0	83	0	0	
97	97	0	97	0	97	0	0	97	0	0	97	0	0	0	
0	0	0	41	41	41	0	41	0	0	41	41	0	0	0	
0	0	0	0	0	71	0	71	71	0	0	0	0	0	0	
0	0	29	29	0	29	0	0	29	0	0	0	29	0	29	
63	0	0	0	63	0	63	0	0	0	63	0	0	0	63	
0	0	72	0	0	0	72	0	72	0	0	72	0	0	0	
18	0	18	0	18	0	0	0	0	0	0	0	0	18	0	
65	0	65	0	0	0	65	65	65	0	0	0	0	65	65	
75	0	0	0	0	0	0	0	0	0	75	0	0	75	75	
0	34	34	0	34	0	0	34	0	0	0	34	0	34	0	
86	86	0	0	86	0	86	86	0	0	86	0	0	86	0	
0	0	0	58	58	0	0	0	0	0	0	0	58	58	0	
74	74	0	74	74	0	0	74	0	74	0	74	74	0	0	
0	0	0	0	0	0	0	0	0	97	0	0	0	0	0	
0	0	68	0	0	0	0	68	0	0	68	68	0	68	0	
0	0	0	0	0	0	0	18	0	0	0	18	0	18	0	
0	0	0	0	0	0	0	0	0	0	0	0	0	0	19	
58	58	58	58	58	58	0	0	0	58	0	0	0	58	0	
75	0	0	0	0	0	75	0	0	0	75	0	0	0	0	
41	41	0	0	41	0	0	0	0	0	0	0	41	0	41	
80	0	0	0	0	0	0	0	0	0	80	0	0	0	0	
0	0	0	0	0	0	0	0	0	0	63	0	63	63	0	
0	0	0	0	35	0	0	0	0	35	0	0	0	0	35	
10	0	0	10	0	10	0	10	0	0	0	0	0	0	0	
0	20	0	0	20	0	20	20	0	20	0	0	20	0	0	
0	0	0	0	61	61	0	0	0	0	61	0	61	61	61	
0	35	35	0	35	0	35	35	0	0	0	0	35	0	0	
0	0	59	0	0	59	59	59	59	0	0	59	59	0	59	
0	0	0	25	0	25	0	0	0	25	0	0	0	0	0	
86	0	0	0	0	0	0	86	0	0	0	0	0	0	0	
0	0	0	0	70	0	0	70	0	0	0	70	0	0	70	
0	0	0	84	0	0	0	0	84	0	84	0	0	84	0	
0	65	0	0	65	65	65	0	0	0	0	0	0	0	0	
0	0	0	51	0	51	51	0	0	0	0	0	0	0	0	
0	0	39	0	39	39	0	0	39	0	0	0	39	0	39	
0	0	0	0	40	0	0	0	40	0	0	40	0	0	0	
0	41	41	41	0	0	0	0	0	41	41	41	41	0	41	
0	0	33	33	0	0	0	0	0	33	0	0	33	0	33	
0	0	30	30	0	30	30	0	0	0	30	0	30	0	0	
0	87	0	0	0	87	87	0	87	87	0	0	87	0	0	
97	0	97	0	97	0	0	0	0	0	97	97	0	0	97	
0	0	0	76	0	0	76	76	76	0	0	76	0	0	0	
0	0	0	0	0	52	52	0	0	52	0	0	0	0	0	
35	35	35	0	35	0	35	35	0	35	35	0	0	35	0	
51	0	51	51	51	51	51	51	51	51	51	0	0	0	0	
95	95	95	95	0	0	0	0	0	0	0	0	0	0	0	
65	65	0	0	65	0	0	0	0	0	0	0	0	0	65	
0	89	0	0	0	0	89	0	0	0	0	0	0	0	89	
0	0	27	0	27	0	0	0	0	0	27	0	27	0	0	
61	61	61	0	61	0	61	0	61	61	0	0	0	0	0	
0	0	0	0	0	0	0	69	0	0	0	69	0	0	69	
61	0	0	0	61	61	0	0	0	0	61	0	0	61	0	
0	13	13	13	0	13	13	13	0	13	13	13	0	13	0	
12	12	0	0	0	12	0	0	0	0	0	0	12	0	0	
27	27	27	0	27	0	0	0	0	0	27	0	0	0	0	
13	0	0	0	13	0	0	0	0	0	13	0	0	0	0	
80	0	0	0	0	0	0	0	0	0	0	80	0	0	0	
0	0	0	0	0	49	0	0	0	0	49	0	49	49	49	
0	0	0	18	18	0	0	0	18	0	0	18	0	0	18	
0	0	33	0	33	0	33	0	0	0	0	0	0	0	0	
0	0	44	0	0	0	0	0	0	0	44	0	0	0	44	
0	12	0	12	12	0	0	12	0	12	0	0	0	0	12	
0	22	0	22	0	0	0	22	22	0	0	0	0	22	0	
0	0	49	0	0	0	49	0	0	0	49	0	0	0	0	
67	0	0	67	67	67	0	0	67	67	67	67	67	67	0	
12	0	0	12	0	0	0	12	0	0	0	0	0	0	0	
0	0	63	0	0	0	63	63	0	0	0	0	0	63	0	
62	0	62	0	0	62	62	0	0	0	0	62	0	0	62	
47	0	0	47	47	47	0	47	47	0	47	0	0	0	47	
0	33	33	0	0	0	0	33	0	0	33	0	33	33	0	
30	0	0	0	0	0	30	0	0	0	0	30	0	0	30	
28	0	0	0	0	0	0	28	0	0	28	0	0	28	0	
61	0	0	0	61	0	61	61	0	0	0	61	0	0	61	
29	0	29	0	0	29	29	29	0	0	0	0	0	0	0	
0	56	0	0	56	0	56	0	0	0	0	0	0	0	56	
88	0	0	0	0	0	0	88	0	88	0	88	0	0	0	
0	98	0	0	98	0	98	98	0	98	0	98	0	0	98	
0	0	0	0	62	0	0	0	0	0	0	62	62	0	0	
0	20	0	0	0	20	20	0	20	20	0	0	0	20	0	
65	0	65	0	0	0	0	65	0	65	0	0	0	0	65	
0	0	0	0	48	0	48	0	0	0	0	48	0	0	48	
43	0	43	0	43	0	0	43	0	0	43	0	0	0	43	
80	0	80	80	0	0	0	0	80	80	80	80	80	0	80	
0	0	0	0	18	0	0	18	0	18	0	18	0	18	0	
0	0	0	51	51	51	0	0	51	0	0	51	0	0	0	
23	0	0	23	23	23	0	0	23	0	0	0	0	0	0	
46	0	0	0	0	0	0	0	0	0	46	0	46	0	0	
0	59	0	0	59	0	59	0	0	59	0	0	59	59	0	
15	0	0	15	0	0	0	0	15	0	15	0	0	0	0	
55	55	0	55	55	0	55	55	0	0	0	0	0	0	0	
0	0	0	0	0	0	0	0	0	0	0	0	0	0	21	
0	61	0	0	61	0	0	61	0	61	0	0	0	0	0	
0	0	27	0	0	0	0	0	27	0	0	0	0	0	0	
0	85	0	0	0	0	0	85	0	0	0	0	0	0	85	
0	0	0	36	0	0	0	36	0	36	36	0	0	36	0	
0	0	18	0	18	18	0	0	0	0	18	18	0	18	0	
0	0	0	88	0	88	0	0	0	0	0	0	0	0	0	
0	0	82	0	82	0	0	82	0	0	0	0	0	0	0	
0	0	35	0	0	0	35	0	0	0	0	0	35	0	0	
0	0	46	0	0	0	46	0	0	0	46	46	46	46	0	
0	20	0	20	20	20	0	0	0	20	20	0	20	20	0	
34	0	0	34	34	0	0	34	0	34	0	0	0	0	0	
0	24	0	24	0	0	0	0	0	24	24	0	0	0	24	
87	0	0	0	0	0	87	0	0	87	87	87	0	0	0	
0	41	41	0	41	0	0	0	0	0	41	0	0	0	0	
0	0	14	0	0	0	0	0	0	14	0	0	14	0	0	
0	66	66	66	0	0	66	0	0	0	0	66	0	66	0	
64	64	0	0	0	64	64	64	0	64	0	64	64	0	0	
0	25	0	25	0	25	0	25	0	25	0	0	0	0	0	
0	0	0	0	0	0	0	0	0	0	0	34	0	34	0	
55	0	0	55	0	55	0	55	55	0	55	0	0	0	0	
0	0	24	24	24	0	24	0	0	0	0	0	0	0	24	
0	0	0	0	0	0	0	0	0	0	0	0	30	0	0	
0	0	0	0	0	0	0	0	63	0	0	0	63	0	0	
0	41	0	0	0	0	0	0	41	41	41	0	0	0	0	
0	0	0	0	0	0	38	0	0	0	0	0	0	38	38	
0	0	0	0	47	0	47	0	47	0	47	0	0	0	0	
81	0	0	81	0	81	0	81	0	81	0	81	0	81	0	
0	40	0	0	0	0	0	40	0	0	0	40	0	0	40	
0	0	44	44	0	0	0	0	0	0	44	44	0	0	44	
0	0	41	0	41	0	0	41	0	0	0	0	0	41	0	
0	93	93	0	0	0	0	0	93	0	0	0	0	0	93	
0	0	88	0	0	88	0	0	0	0	0	88	0	0	88	
0	26	0	0	0	26	0	26	26	26	0	26	0	26	0	
0	0	0	0	0	0	0	0	0	0	0	0	44	0	0	
25	0	0	25	0	0	0	25	25	25	25	0	0	0	0	
14	14	0	0	14	0	0	14	0	14	0	14	0	0	14	
0	54	0	0	54	0	54	54	0	0	0	0	0	0	54	
0	72	0	0	72	72	0	0	72	72	0	72	0	0	72	
0	13	0	0	0	0	0	0	0	0	0	13	0	0	0	
0	0	0	86	86	0	0	0	0	86	86	0	86	86	0	
75	0	75	0	75	0	75	0	0	75	75	0	75	0	75	
0	0	0	0	74	0	74	0	74	74	0	0	74	0	74	
0	71	0	0	0	0	0	0	0	0	0	0	0	0	0	
0	0	0	0	0	0	0	0	96	0	96	96	0	0	96	
0	21	0	0	21	0	0	21	21	0	0	0	0	21	21	
0	0	0	0	0	0	62	62	62	0	62	0	0	0	0	
0	0	0	0	0	0	0	76	0	0	0	0	0	76	76	
0	0	58	58	58	58	0	0	0	0	0	0	58	58	0	
0	0	0	0	0	77	77	0	0	77	0	0	0	0	77	
0	52	52	0	0	0	0	0	0	0	52	0	0	52	52	
90	0	0	90	0	90	90	0	0	0	90	0	90	0	0	
0	0	0	0	0	0	0	50	0	50	0	0	0	0	0	
0	0	0	0	24	0	0	0	0	0	0	0	0	0	0	
17	17	0	0	0	17	17	17	0	0	17	17	0	17	0	
0	0	0	0	0	92	0	0	92	0	0	0	0	0	92	
0	23	0	0	23	0	23	0	23	0	0	0	23	0	23	
0	20	0	0	20	0	0	0	0	20	0	0	20	20	0	
0	0	58	0	0	0	0	58	0	0	0	58	0	0	0	
48	48	0	0	48	48	48	0	0	48	0	0	0	0	0	
26	26	26	0	0	26	0	0	0	0	26	0	0	26	0	
76	0	0	0	0	0	0	0	0	0	0	76	0	0	0	
81	0	0	81	0	0	0	0	81	0	0	0	0	0	81	
19	0	19	19	0	0	0	0	0	0	0	0	0	19	0	
0	15	15	0	0	0	0	0	15	15	0	0	0	0	15	
0	0	0	68	0	68	0	0	68	0	0	0	0	0	68	
0	0	71	71	71	0	0	0	71	71	0	0	0	0	71	
0	0	0	0	0	0	0	0	16	0	0	0	0	0	0	
0	0	0	0	0	86	86	0	86	0	0	86	86	0	0	
51	51	0	51	0	51	0	51	51	0	0	0	0	51	0	
0	61	0	0	61	61	0	61	0	61	61	0	0	61	61	
0	0	0	55	0	0	55	0	0	0	0	0	0	55	0	
0	0	0	0	20	0	0	0	0	0	0	20	0	20	0	
0	76	0	76	0	0	76	0	0	0	0	0	0	0	0	
28	28	0	0	0	0	0	0	28	28	0	0	0	0	28	
73	0	73	0	0	0	0	0	0	0	0	0	0	73	0	
0	0	69	69	0	0	0	0	0	69	69	0	0	0	69	
81	81	0	0	0	0	0	0	0	0	81	0	81	0	0	
0	0	0	0	0	0	0	63	0	0	0	0	0	63	0	
0	75	75	0	75	0	0	75	0	75	75	75	75	75	0	
67	67	67	0	0	67	67	67	0	0	67	67	0	0	0	
0	0	81	81	81	0	81	0	0	0	81	0	0	0	0	
0	72	72	0	72	0	0	0	0	72	0	72	0	0	72	
0	0	0	0	0	86	86	0	86	0	0	0	0	0	86	
0	0	0	0	0	0	0	0	0	0	0	56	56	0	0	
28	0	0	0	0	0	0	0	28	0	0	28	28	0	28	
70	70	70	0	0	0	70	0	0	0	0	0	70	0	0	
0	0	0	64	64	0	64	0	0	0	0	64	64	0	0	
0	0	88	0	0	88	0	0	0	0	0	0	0	88	0	
55	0	55	55	0	55	0	55	0	0	0	0	0	0	0	
0	0	92	0	92	92	0	92	92	0	0	0	0	0	92	
0	0	88	0	0	0	88	88	0	88	0	0	88	0	0	
0	62	0	0	0	0	62	0	62	0	0	62	62	0	62	
64	0	64	0	0	0	0	64	0	0	0	64	0	0	0	
0	65	65	0	65	0	0	0	0	0	0	65	0	65	0	
0	0	0	0	0	0	0	0	64	0	0	0	0	0	0	
0	0	0	0	0	61	0	61	0	0	0	61	0	0	0	
30	0	0	30	0	0	30	0	30	30	30	0	30	30	0	
39	0	0	0	39	0	0	0	39	0	0	0	39	0	0	
0	0	0	0	0	0	81	0	0	0	81	0	0	0	0	
0	0	0	33	0	0	33	0	0	0	0	33	0	0	0	
0	77	0	0	0	0	0	0	0	77	77	0	0	77	0	
80	0	80	80	0	80	80	0	0	0	0	80	80	0	0	
0	0	27	0	27	27	27	0	0	0	0	0	0	0	27	
33	33	0	33	33	0	0	0	0	33	0	33	33	0	33	
45	0	0	45	0	0	45	0	0	45	0	0	0	0	0	
0	66	66	0	0	0	0	0	0	66	0	0	0	66	0	
0	84	0	0	84	0	84	0	0	0	84	84	0	84	0	
40	40	40	0	0	0	0	0	0	0	0	40	40	0	0	
0	0	0	54	0	54	0	0	0	0	0	0	0	0	54	
51	0	0	0	51	0	0	0	0	51	0	51	0	0	0	
81	81	0	81	0	0	0	0	0	0	0	0	0	0	0	
0	0	0	0	0	0	0	0	0	0	0	53	53	0	0	
0	0	53	53	0	0	53	0	0	0	0	53	53	0	53	
46	46	46	0	0	0	0	0	0	0	0	0	0	0	0	
10	0	0	10	10	0	0	0	0	0	0	0	0	0	10	
57	0	57	0	0	57	0	0	0	0	0	0	0	0	0	
0	0	0	0	39	0	0	39	39	0	39	0	0	39	0	
20	0	0	0	20	20	0	0	0	0	0	0	0	0	0	
0	18	0	18	0	18	0	0	0	18	0	0	0	0	0	
0	0	0	0	0	77	77	77	0	0	0	77	0	0	77	
51	0	51	51	0	0	51	0	0	0	0	0	0	0	51	
0	0	0	0	0	0	0	97	0	0	0	97	0	0	0	
0	16	16	0	16	0	0	0	0	16	0	0	0	0	0	
17	17	17	0	0	0	17	0	0	0	0	0	0	0	0	
63	63	63	63	0	63	0	0	0	63	0	0	63	0	0	
0	45	45	0	0	0	45	0	0	0	45	0	0	0	0	
0	0	0	0	94	94	0	0	0	0	0	94	0	0	94	
32	0	0	32	0	0	0	32	0	0	32	32	0	32	0	
0	0	31	31	0	0	31	0	31	31	0	31	0	31	0	
0	0	51	0	0	51	0	0	51	0	0	0	0	0	0	
89	0	0	89	0	89	0	0	89	0	89	0	0	0	0	
59	59	59	0	0	0	0	0	59	0	59	0	0	0	0	
0	48	48	48	0	0	0	48	0	0	0	0	0	48	0	
63	0	0	0	0	0	0	0	0	0	0	0	0	0	0	
0	0	44	0	0	0	0	0	0	44	0	0	0	0	0	
22	22	22	0	0	22	0	0	22	0	0	22	22	22	0	
0	15	0	0	0	0	15	0	0	15	0	0	0	0	0	
0	0	0	0	0	0	0	96	0	0	96	0	0	0	0	
0	46	0	46	0	0	0	46	0	0	0	0	0	46	0	
0	0	0	0	0	0	24	0	24	24	0	0	0	0	0	
95	95	0	0	0	95	0	0	95	95	0	0	0	0	0	
0	0	0	0	0	0	0	84	0	0	0	0	0	0	84	
0	0	0	82	82	0	0	0	82	82	82	82	0	0	82	
33	0	0	33	0	33	0	33	0	0	33	33	33	0	0	
0	0	0	0	0	53	53	0	53	0	53	53	0	53	0	
26	26	26	0	26	26	0	0	0	0	0	0	0	0	26	
32	0	0	32	0	0	32	0	32	32	0	32	0	0	0	
0	0	0	61	61	61	61	0	0	0	0	0	0	0	0	
76	0	0	0	76	76	76	0	0	76	0	0	0	76	0	
0	91	0	91	0	0	0	91	91	0	0	0	91	91	0	
32	0	32	0	0	0	0	32	0	0	0	0	32	0	0	
0	96	0	0	96	96	96	0	96	0	0	0	96	96	0	
22	22	22	22	0	0	0	0	0	0	0	0	0	0	0	
88	88	88	0	88	0	0	0	0	88	0	88	0	0	0	
0	0	0	91	0	0	0	0	0	0	91	0	91	0	0	
23	23	0	0	0	23	0	23	0	23	23	23	0	23	23	
0	0	42	0	0	42	0	0	42	0	42	0	42	0	0	
0	0	0	0	0	0	0	33	0	0	0	0	33	0	0	
94	94	0	0	94	0	0	94	0	94	94	94	94	0	0	
0	0	91	0	0	0	0	0	0	0	91	91	0	91	0	
0	0	0	0	93	0	0	93	0	0	93	93	93	0	0	
0	0	94	0	0	0	0	0	94	94	94	0	94	0	0	
0	0	0	0	0	84	0	84	84	0	0	0	84	0	0	
0	0	0	0	0	59	0	59	0	59	59	0	0	0	0	
0	0	0	92	0	0	92	92	92	0	92	0	92	0	92	
0	0	80	0	0	0	0	80	0	0	0	0	80	0	80	
0	0	0	73	73	73	0	0	0	0	0	0	73	0	73	
0	0	0	0	28	0	0	0	28	0	0	0	28	0	28	
0	0	0	84	0	84	0	84	84	0	84	0	0	84	0	
29	0	0	29	0	0	29	0	0	29	0	0	29	0	0	
10	10	0	10	10	0	10	0	0	10	10	0	10	0	0	
0	53	0	0	53	0	0	0	0	53	53	0	0	53	0	
0	39	39	0	0	0	39	0	0	0	0	39	0	39	0	
0	0	78	0	0	0	0	78	78	0	0	78	0	0	0	
0	0	0	0	0	60	60	0	0	0	0	0	0	0	0	
0	0	49	49	0	0	0	49	0	49	49	0	49	0	49	
0	20	0	0	0	0	0	20	20	0	0	0	0	0	20	
0	0	0	0	0	0	41	0	0	0	41	0	0	0	41	
0	29	29	29	29	0	0	0	0	0	0	0	0	0	0	
0	0	0	0	0	0	55	55	0	0	55	55	0	0	0	
0	0	21	0	0	0	0	0	0	21	21	0	0	0	21	
0	0	0	29	29	29	0	29	0	0	0	29	0	0	0	
0	84	0	0	84	0	84	0	0	84	0	0	0	0	84	
0	0	57	0	0	57	0	0	0	0	57	0	0	57	0	
34	0	0	34	0	0	34	0	0	0	34	0	34	0	0	
0	90	0	90	90	0	0	90	0	0	0	0	0	90	0	
49	49	0	0	49	49	49	0	0	0	0	49	49	49	0	
0	0	0	63	0	0	63	0	63	63	0	0	0	0	0	
89	0	0	0	0	0	0	0	89	0	0	89	0	0	89	
22	22	22	0	0	0	22	0	22	22	22	0	0	0	0	
0	49	49	0	0	0	0	0	0	49	0	0	0	0	49	
84	84	0	0	0	0	0	84	84	0	0	0	0	0	0	
78	78	0	78	0	0	0	78	0	0	0	78	0	78	0	
0	0	0	0	0	22	0	22	22	22	22	22	0	0	0	
63	63	0	63	0	0	0	63	0	0	0	0	0	0	0	
31	0	0	0	0	0	0	0	0	31	0	31	31	0	0	
61	0	0	0	0	0	0	0	0	61	0	61	0	0	0	
95	0	95	95	0	0	95	95	0	95	0	0	95	0	0	
0	0	13	13	0	0	0	0	0	0	13	0	13	13	0	
60	60	0	0	60	0	60	60	60	60	0	60	60	60	60	
0	0	0	0	0	0	0	78	0	0	78	0	0	0	0	
0	0	0	0	75	0	0	0	0	0	0	0	0	0	75	
0	0	0	24	24	0	0	0	24	24	0	0	0	0	0	
0	0	0	76	76	0	76	76	0	0	0	76	76	0	0	
0	0	0	0	0	0	0	0	0	0	0	0	0	24	0	
41	0	0	0	0	0	0	41	0	41	0	0	0	0	0	
98	98	0	0	0	98	0	98	0	0	98	0	0	0	0	
0	0	0	90	0	90	90	0	90	0	0	90	90	0	0	
0	0	0	0	0	0	0	0	0	61	0	61	0	0	0	
0	84	0	0	0	0	0	84	84	84	84	0	0	0	0	
64	64	64	0	64	64	0	0	0	0	64	0	64	0	0	
35	0	35	0	0	35	35	0	0	0	0	35	35	0	0	
62	0	0	0	0	0	0	0	0	0	0	0	0	0	62	
0	26	26	0	0	0	0	0	0	0	0	0	0	0	26	
0	0	0	56	0	0	56	0	56	0	0	56	0	56	0	
0	0	0	83	83	83	0	0	0	0	0	0	0	83	83	
0	28	28	0	0	0	0	0	0	0	0	28	0	0	0	
0	34	34	34	0	0	34	34	0	0	34	0	0	34	34	
0	0	0	0	0	83	83	83	83	0	83	0	0	83	0	
55	0	0	0	0	0	55	0	0	55	55	0	0	0	55	
0	61	0	0	0	0	0	0	0	61	61	0	0	0	61	
0	0	0	0	0	0	0	29	0	0	0	0	29	0	0	
0	53	0	0	0	53	53	0	53	0	0	53	0	0	0	
0	63	0	0	0	0	0	63	63	63	0	0	0	0	0	
0	0	79	0	0	79	79	0	0	0	0	79	0	0	79	
36	0	36	0	0	0	0	36	36	0	36	0	0	0	36	
0	41	0	0	41	0	0	41	0	0	0	0	0	0	0	
0	0	14	0	14	0	0	14	14	14	0	0	0	0	0	
0	24	0	24	0	24	24	0	0	0	0	0	0	0	0	
0	0	0	75	0	0	0	0	0	0	75	0	75	0	0	
0	0	0	28	0	0	0	28	28	0	28	0	0	0	0	
0	50	0	0	0	0	0	0	0	0	0	0	0	0	0	
0	0	0	0	0	0	0	0	0	18	18	0	18	18	18	
21	0	0	0	21	0	0	0	0	0	21	21	0	0	0	
48	0	0	48	0	0	0	0	0	0	0	0	0	0	48	
0	0	0	0	0	0	51	51	51	51	51	0	51	0	51	
0	30	30	0	0	30	0	0	0	30	30	30	30	30	0	
76	0	76	0	0	76	0	0	76	76	76	76	0	0	76	
0	32	0	0	32	32	32	0	0	0	32	0	0	0	0	
70	0	70	0	0	70	0	0	70	0	0	0	70	0	70	
12	0	0	0	0	0	12	0	0	0	0	0	12	0	12	
75	0	75	0	0	0	75	0	0	0	0	0	0	0	0	
0	16	0	0	0	0	16	0	0	0	0	0	16	16	16	
0	0	0	0	0	56	56	0	56	0	0	0	0	0	56	
0	39	0	0	0	39	0	0	0	39	39	0	0	0	39	
0	0	0	28	28	0	0	0	0	0	0	0	28	28	28	
0	0	0	0	97	0	0	0	0	97	0	0	0	97	0	
86	0	86	86	0	86	0	86	86	86	86	0	0	0	0	
74	0	0	74	0	74	0	74	0	0	0	0	0	0	0	
0	0	0	0	0	0	27	0	0	27	27	0	0	0	0	
42	0	0	0	0	0	0	0	42	0	42	0	0	42	0	
0	0	55	0	55	0	0	0	55	0	0	0	0	0	55	
0	0	57	0	0	0	57	57	0	0	0	0	57	0	0	
0	33	0	0	0	0	0	0	0	0	0	0	33	33	0	
0	10	10	10	10	0	0	10	0	0	0	0	10	10	0	
22	22	22	0	0	0	0	22	22	0	0	0	0	0	22	
12	0	0	0	0	0	12	0	0	0	0	0	12	0	0	
0	0	0	0	0	0	0	17	0	0	17	0	0	0	0	
0	0	32	0	32	0	0	0	0	32	0	32	0	0	0	
0	0	0	48	0	48	0	0	0	0	0	0	0	48	48	
59	0	0	59	0	0	0	0	59	0	0	59	0	0	59	
0	0	0	0	0	0	0	0	0	53	0	0	53	0	0	
0	0	46	46	0	46	0	0	0	46	46	0	0	46	0	
0	0	0	0	0	0	0	29	0	0	0	29	0	29	0	
0	0	0	71	71	0	0	0	71	0	71	0	71	71	71	
11	0	0	11	0	0	11	0	11	11	0	11	0	0	0	
0	0	0	0	78	0	78	0	0	0	78	0	78	0	0	
0	0	58	0	58	58	0	0	58	0	58	58	0	58	0	
0	20	0	0	0	0	0	0	20	0	20	0	0	20	0	
16	16	16	0	0	16	16	0	16	0	0	0	16	0	0	
0	0	0	54	0	54	0	0	0	0	54	0	0	0	0	
0	0	0	0	12	0	0	12	0	12	12	12	0	0	0	
0	0	0	0	0	0	61	61	61	0	61	0	0	0	61	
0	0	25	0	0	0	0	25	0	25	0	0	0	0	0	
42	0	0	0	0	0	0	42	42	0	0	42	0	0	0	
0	0	0	0	0	73	73	0	0	0	0	73	0	0	73	
0	82	82	0	0	82	0	82	0	0	0	0	0	82	0	
0	0	0	0	86	0	86	0	86	0	0	0	86	0	86	
70	70	70	0	0	0	0	0	70	0	70	70	0	70	70	
97	0	0	0	0	0	0	0	0	97	0	0	0	0	0	
0	0	0	54	0	54	0	0	0	0	0	54	0	0	0	
0	0	0	0	0	65	0	0	0	0	0	0	0	0	0	
0	0	0	0	0	34	0	0	0	34	34	0	0	0	34	
34	34	34	0	0	0	0	0	0	34	0	34	34	34	0	
39	39	39	39	39	0	0	0	0	39	0	0	0	0	0	
0	0	0	0	74	74	0	74	74	0	0	74	0	74	0	
61	0	0	0	0	0	61	61	0	61	61	0	61	61	0	
0	0	70	70	0	0	0	0	70	0	0	0	70	70	0	
68	68	0	0	0	0	0	0	68	0	68	68	0	0	68	
86	86	86	0	0	0	0	0	86	0	86	0	0	86	0	
0	43	0	0	0	0	0	43	0	0	43	43	43	0	0	
0	0	15	15	0	15	15	0	15	0	0	0	0	0	0	
88	0	0	88	0	0	88	0	88	0	88	88	0	0	0	
0	92	0	92	92	0	0	92	0	0	0	0	92	92	0	
0	0	0	86	86	0	0	0	0	0	0	86	0	86	0	
0	0	0	0	24	0	0	0	0	24	0	0	0	0	0	
0	0	0	0	75	0	75	75	0	75	75	75	0	75	0	
65	0	0	0	0	65	65	0	0	0	0	65	0	65	0	
63	63	0	63	63	0	63	63	0	63	0	0	63	0	63	
93	0	0	93	0	93	93	93	0	0	0	0	0	0	0	
0	0	0	25	0	25	0	0	0	25	0	0	25	0	25	
98	0	98	0	0	0	0	98	0	0	0	98	98	0	0	
0	0	0	38	0	0	0	0	38	0	0	0	0	38	0	
0	90	0	0	90	0	0	0	0	90	0	0	0	0	90	
0	0	0	0	0	40	0	40	40	0	0	0	0	40	0	
0	0	0	52	0	0	52	0	52	0	0	0	0	52	52	
0	0	69	0	0	0	0	0	0	69	0	0	0	0	0	
46	46	46	0	0	0	46	0	0	46	46	0	0	0	0	
0	0	48	0	0	48	48	0	0	48	0	0	0	48	48	
0	0	0	0	44	0	0	0	0	0	44	0	0	0	0	
0	0	10	0	10	10	10	10	0	0	10	0	10	0	0	
0	0	0	50	50	0	0	0	0	0	0	0	50	50	0	
0	0	0	0	0	0	0	60	60	0	0	0	0	60	0	
0	0	79	0	79	0	0	0	0	79	0	0	0	0	79	
0	0	0	34	34	0	0	0	0	0	0	0	0	0	0	
74	74	0	0	0	0	74	0	0	0	74	0	0	74	0	
0	17	0	0	0	0	0	0	0	0	0	0	0	17	0	
72	0	0	0	0	0	72	0	72	0	72	0	0	72	0	
67	0	67	0	0	0	0	0	0	67	0	0	0	67	0	
44	0	0	44	44	0	0	0	0	44	0	0	0	0	0	
0	83	0	0	0	0	0	0	0	83	0	0	0	0	0	
0	43	43	0	0	43	0	0	0	0	43	0	0	43	0	
0	0	0	0	0	42	42	0	42	42	0	0	0	0	0	
19	0	19	0	0	19	0	0	19	19	0	19	0	0	0	
50	0	50	0	50	0	0	0	0	0	50	0	0	0	50	
50	50	0	0	0	0	50	0	50	0	0	0	0	0	50	
34	0	0	34	0	0	0	34	0	34	0	34	0	34	0	
37	37	0	0	0	0	0	0	37	0	0	0	0	0	37	
0	0	84	84	0	0	0	0	0	0	0	0	0	0	84	
0	0	0	61	61	0	0	61	0	0	61	0	0	61	61	
0	17	0	0	0	0	0	17	0	17	0	0	0	0	17	
87	0	0	87	87	0	0	0	0	0	0	0	0	0	0	
0	86	86	0	86	86	86	0	0	0	0	86	86	0	0	
0	0	0	0	0	0	0	0	71	0	71	0	71	0	0	
0	0	0	0	96	0	0	96	0	0	0	0	0	96	0	
58	0	58	0	0	0	58	58	58	58	58	0	0	0	0	
80	0	0	0	80	0	80	80	0	0	80	0	80	80	0	
0	64	64	0	64	0	0	0	0	0	0	64	64	0	0	
0	10	0	0	0	10	0	0	10	0	10	0	10	10	0	
11	0	0	0	0	11	0	0	11	0	0	0	0	11	0	
0	0	0	0	0	36	0	0	0	0	0	0	0	36	36	
0	0	0	0	0	62	0	62	0	0	0	62	0	62	0	
0	0	0	0	0	0	81	0	0	0	81	0	0	0	81	
24	0	0	0	24	0	0	24	0	0	0	0	0	24	0	
0	47	47	0	0	0	0	47	0	0	0	0	0	0	0	
0	10	0	0	0	0	10	0	10	0	10	10	0	0	0	
95	0	0	0	0	95	95	95	0	0	0	0	0	0	0	
0	0	0	0	23	0	0	0	0	0	0	0	0	0	23	
0	45	0	0	0	0	0	0	45	0	0	45	0	0	0	
0	0	0	0	0	98	0	0	0	0	0	0	0	0	0	
0	0	0	20	0	0	0	20	0	20	0	0	0	20	0	
0	0	0	0	0	0	0	0	37	0	37	37	37	0	37	
93	0	0	0	93	93	0	0	0	0	0	0	93	93	93	
0	0	0	0	0	0	0	50	0	0	50	0	0	0	0	
0	0	63	0	0	63	63	63	0	63	0	63	0	0	0	
0	27	0	27	27	27	0	0	0	0	0	0	27	0	27	
57	0	0	0	0	0	0	0	0	0	0	0	0	0	0	
0	32	0	0	0	0	0	0	32	32	0	0	32	0	0	
63	63	63	0	0	0	63	0	0	0	63	63	0	63	63	
0	0	78	78	78	78	0	0	78	78	0	0	0	0	78	
0	0	0	0	72	0	0	72	0	0	72	72	0	0	72	
0	0	80	0	0	0	0	80	0	0	0	0	80	0	80	
0	53	0	0	53	53	0	53	53	53	0	53	0	0	0	
0	0	45	0	0	45	0	0	0	0	0	0	0	0	45	
0	0	0	0	25	0	0	25	0	0	25	0	25	0	0	
50	50	0	0	0	0	0	0	50	0	0	0	0	0	0	
0	0	0	0	29	0	0	0	0	0	0	0	0	29	0	
0	0	60	60	60	60	0	0	60	0	0	60	0	0	60	
0	0	0	43	0	43	43	0	0	0	0	0	0	0	0	
0	0	0	0	0	49	49	0	0	0	0	49	0	0	0	
46	0	0	0	0	0	0	0	0	0	46	46	0	0	0	
73	0	0	0	73	73	73	73	0	73	0	73	0	0	0	
0	48	0	0	48	0	0	0	0	48	48	0	48	0	0	
0	0	42	0	0	42	0	0	42	42	0	42	0	42	0	
0	0	0	57	0	0	0	0	0	57	0	57	0	0	0	
0	0	49	0	0	0	0	0	0	0	0	0	0	0	0	
0	24	0	0	24	0	0	24	24	0	0	24	0	0	0	
0	0	52	0	0	0	0	52	52	0	0	0	52	0	0	
96	0	96	0	0	0	0	96	96	96	0	0	96	0	96	
79	79	0	0	0	0	0	0	0	0	0	0	79	79	0	
0	0	0	0	0	0	0	0	0	0	0	45	0	45	0	
94	0	94	0	0	0	94	0	0	94	94	94	0	0	0	
0	32	0	0	32	0	0	0	0	0	0	0	32	0	0	
0	45	0	0	45	45	0	0	45	45	45	0	45	0	45	
0	0	55	0	55	55	0	0	55	55	55	0	0	55	55	
0	0	0	72	0	0	72	0	0	0	0	0	0	0	72	
61	0	0	61	61	61	0	0	0	61	0	0	0	61	0	
0	0	54	0	0	54	0	0	54	0	0	0	54	0	0	
0	0	0	0	0	0	0	0	0	0	0	0	0	91	0	
0	0	0	0	0	59	0	59	0	0	0	0	0	0	0	
0	0	0	0	93	93	0	0	0	0	93	0	0	0	0	
0	39	0	0	39	0	0	39	0	0	0	0	39	0	39	
0	0	0	96	0	0	0	96	96	0	0	96	0	96	0	
0	0	0	0	0	0	0	0	0	0	0	0	25	0	0	
0	0	12	0	0	12	12	0	12	0	0	0	0	12	0	
23	0	0	23	23	0	23	0	0	23	23	23	23	23	23	
50	50	50	0	0	50	50	0	0	50	0	0	0	0	50	
0	0	33	0	0	0	33	0	0	0	0	0	0	0	33	
0	0	0	0	0	0	0	0	0	0	0	26	0	26	26	
0	0	0	0	0	80	80	80	80	0	0	0	0	0	0	
39	0	39	0	39	39	0	39	39	0	0	0	0	0	39	
0	0	0	0	0	0	0	0	0	67	67	67	67	0	0	
0	0	0	0	0	0	0	0	0	87	87	0	0	0	0	
0	0	44	44	0	44	0	0	0	0	0	44	0	44	0	
0	97	0	0	0	0	97	0	97	97	0	97	97	97	0	
10	10	10	0	0	0	0	10	0	0	0	10	0	10	10	
0	0	0	78	0	0	78	0	0	0	78	0	0	78	0	
97	97	0	0	97	0	97	0	0	97	0	0	97	97	0	
0	0	0	0	0	0	0	64	0	0	64	64	64	0	0	
37	37	0	0	37	0	37	37	0	37	37	0	0	0	37	
71	0	0	0	0	0	71	0	0	0	0	0	0	0	71	
0	35	35	0	0	35	0	35	35	0	35	0	0	0	35	
0	28	28	0	0	28	0	0	0	0	28	0	28	0	0	
47	0	0	0	0	47	0	47	0	0	47	0	0	0	0	
0	57	0	57	57	57	0	57	0	57	57	0	57	0	0	
0	0	0	0	0	0	0	0	0	50	50	50	50	0	50	
0	0	90	0	90	0	90	0	90	0	0	90	90	90	90	
0	0	0	0	0	0	0	61	0	0	61	0	61	0	0	
0	64	0	0	0	0	64	0	64	64	0	64	0	64	0	
0	45	45	0	0	45	45	0	0	45	45	45	45	45	0	
0	0	0	75	0	0	0	0	75	0	0	75	0	0	0	
0	0	38	38	38	0	0	0	0	0	0	0	38	38	38	
0	0	62	0	62	62	0	62	0	0	0	0	62	62	0	
0	42	0	42	0	0	42	0	42	42	42	42	42	42	0	
0	0	0	37	0	0	37	0	0	0	37	0	37	0	37	
42	42	42	0	42	0	42	0	0	0	0	0	0	0	0	
0	0	0	0	0	0	0	0	0	98	0	98	0	0	98	
0	88	88	0	0	0	88	0	88	0	88	88	0	0	88	
0	81	81	81	0	0	0	0	0	0	0	81	0	0	0	
0	0	52	0	52	0	52	0	0	0	52	0	0	0	0	
0	84	0	0	0	84	84	84	0	84	84	0	0	0	0	
0	0	44	0	0	0	0	0	0	0	0	44	0	0	0	
0	72	0	0	0	0	72	0	0	72	0	72	0	72	0	
0	0	0	0	0	83	83	83	0	0	0	83	0	0	83	
0	62	0	62	0	0	62	0	0	62	0	0	0	62	62	
70	0	0	70	0	70	0	0	0	70	0	0	0	0	0	
0	69	0	0	0	69	0	0	0	69	0	0	69	0	0	
0	0	0	0	86	0	0	0	0	0	0	0	0	0	0	
21	0	0	21	0	0	21	21	0	0	0	0	0	21	21	
15	15	15	15	0	0	0	0	15	15	0	15	15	0	15	
0	0	90	90	0	0	90	0	90	0	0	0	0	0	0	
0	0	0	0	0	0	0	79	0	0	0	79	0	79	0	
0	11	0	0	0	0	0	0	0	0	0	0	0	0	11	
0	0	0	0	0	0	0	0	0	0	0	35	35	35	0	
0	0	0	55	55	0	0	0	0	0	0	0	0	0	55	
0	0	0	0	59	59	0	0	0	0	0	59	59	0	59	
0	0	0	0	0	0	0	95	0	0	0	0	0	95	0	
0	98	0	0	0	0	98	98	0	0	0	0	0	0	0	
0	0	0	0	14	0	0	0	14	0	0	0	0	0	0	
0	0	0	0	0	0	0	0	0	54	54	0	0	0	0	
0	0	0	0	51	51	0	0	0	0	0	0	0	0	51	
0	0	0	62	0	0	62	0	0	62	0	0	0	0	62	
0	0	0	0	59	0	0	0	0	59	59	0	0	0	0	
65	65	0	65	0	0	0	65	0	0	0	0	65	65	0	
52	0	0	0	52	0	0	0	52	0	0	52	0	0	0	
0	0	0	33	0	0	0	0	0	33	0	33	0	0	0	
0	92	92	0	92	92	92	0	0	92	92	0	0	0	0	
0	71	71	0	0	0	71	0	71	71	0	71	0	71	0	
0	0	0	53	53	0	53	0	53	0	0	53	0	53	0	
0	46	0	0	46	0	0	0	0	0	0	0	0	0	0	
0	0	0	0	0	0	0	0	48	0	0	0	48	0	0	
0	0	0	46	0	0	0	0	0	46	46	0	46	0	0	
0	42	0	42	42	42	0	42	42	0	0	0	0	42	0	
0	0	16	0	16	16	0	0	0	0	0	0	0	0	0	
0	0	96	0	96	96	0	96	0	96	96	0	96	0	0	
0	61	61	0	0	0	0	0	61	0	0	0	0	61	0	
91	91	91	0	0	91	0	0	91	0	0	0	0	91	0	
44	0	0	0	0	0	0	0	0	0	0	44	0	0	0	
0	34	0	0	0	34	0	0	0	0	34	0	0	0	0	
0	0	0	0	0	0	0	0	19	19	0	19	19	19	19	
0	11	0	11	0	11	0	0	0	0	0	0	0	11	0	
0	67	0	0	0	0	0	0	0	0	67	0	0	0	0	
15	0	15	0	15	0	0	0	15	0	15	0	15	0	0	
0	0	0	0	0	0	0	0	0	16	0	0	0	0	0	
40	0	0	0	0	40	40	0	0	40	0	0	0	40	0	
70	0	0	0	70	0	0	70	0	0	0	0	0	0	0	
76	0	0	0	76	0	0	0	0	0	0	76	0	76	76	
0	58	0	0	0	58	0	58	0	0	0	58	58	0	0	
87	0	0	0	0	0	0	0	0	0	0	0	0	0	0	
0	0	62	0	0	0	62	0	0	0	0	0	62	0	0	
0	0	16	0	0	0	16	0	16	0	0	0	0	16	0	
0	0	0	50	0	0	50	0	0	0	0	0	0	50	0	
0	0	0	68	68	0	0	0	0	0	68	0	0	0	68	
61	61	0	61	61	0	0	0	0	0	0	61	61	61	61	
0	0	0	0	0	96	0	0	96	96	0	0	0	0	0	
0	29	0	0	0	0	29	0	0	0	29	0	29	29	0	
0	0	16	16	0	0	16	16	0	0	0	0	16	0	0	
66	66	0	0	0	66	66	0	66	0	0	66	0	0	0	
0	0	0	57	0	0	0	57	0	57	0	0	0	0	57	
0	0	0	0	41	0	41	0	41	41	0	41	0	0	41	
0	10	0	0	0	0	0	0	0	0	10	0	10	0	0	
0	0	0	17	0	0	0	0	17	0	17	0	0	0	0	
86	0	0	86	0	0	0	0	0	86	0	0	86	86	86	
0	0	0	0	27	27	0	0	0	0	0	27	0	27	0	
0	79	79	79	79	0	0	79	0	0	0	0	0	79	0	
0	95	95	0	95	0	0	0	0	0	0	0	0	95	0	
67	0	0	0	67	0	0	0	0	0	67	67	0	0	0	
0	0	41	0	41	41	0	0	0	0	41	0	41	0	0	
0	42	0	0	0	0	0	0	42	0	42	0	42	42	0	
0	83	0	0	0	0	0	83	0	83	83	0	0	0	0	
0	63	0	0	0	0	0	0	0	0	0	0	0	0	0	
0	0	0	0	0	0	0	65	0	0	0	0	0	0	65	
0	0	0	0	0	0	0	0	0	0	0	0	90	0	0	
0	0	0	0	0	0	0	45	0	0	0	0	0	45	0	
53	0	0	53	0	0	0	0	0	0	53	53	53	0	53	
0	25	0	0	0	0	25	0	25	0	0	0	0	0	0	
0	49	0	0	0	0	0	0	49	0	0	0	49	0	0	
0	0	0	0	0	0	0	0	0	0	0	0	0	15	0	
0	47	0	0	47	0	0	0	0	0	0	0	47	0	0	
0	0	0	0	45	0	0	0	0	45	0	45	0	0	0	
78	78	0	0	0	0	0	0	78	0	0	0	0	0	0	
10	0	10	0	0	0	0	0	0	0	10	10	0	0	0	
0	0	34	34	0	0	34	34	0	0	0	34	0	0	0	
0	0	69	0	0	0	0	0	69	69	69	0	0	0	69	
0	0	0	53	53	0	0	0	0	0	0	0	53	53	0	
0	17	0	0	0	0	0	0	17	0	0	17	17	0	0	
10	0	0	0	0	0	0	0	10	0	0	10	10	10	10	
0	0	24	0	0	0	24	0	24	0	0	0	0	24	0	
0	0	0	0	0	37	37	0	37	0	0	0	0	0	0	
0	0	0	0	0	0	0	0	84	84	0	0	0	84	84	
0	0	0	0	26	0	0	0	0	26	0	26	0	0	0	
0	0	0	0	0	0	55	55	55	0	0	0	55	0	0	
94	0	94	0	0	0	94	0	0	0	0	0	94	0	0	
55	0	55	0	55	55	55	0	0	0	0	0	0	55	0	
0	87	87	0	87	0	0	87	87	0	87	0	87	0	87	
62	0	0	0	62	0	62	0	62	0	0	62	0	0	0	
0	26	0	26	0	0	0	0	0	0	0	0	26	0	26	
0	0	43	43	0	0	0	0	0	0	43	0	43	0	43	
78	0	0	0	0	0	0	0	0	0	78	0	78	78	0	
0	18	0	0	0	0	0	0	18	18	0	0	18	0	0	
46	0	0	0	0	46	0	46	0	0	46	0	0	0	0	
0	0	0	54	0	0	0	0	54	54	54	0	54	0	0	
14	0	0	0	0	14	0	0	14	0	0	0	0	0	0	
0	0	0	0	58	0	0	0	0	0	58	0	0	0	0	
0	82	82	0	0	0	0	0	0	0	82	0	0	0	82	
0	0	0	0	0	0	71	0	71	71	0	0	0	71	0	
34	0	34	34	0	34	34	0	0	34	34	0	34	0	34	
0	0	0	16	0	16	0	0	0	16	0	0	0	16	16	
0	0	67	0	0	0	0	67	67	0	0	67	0	67	67	
31	0	31	0	0	31	0	0	31	0	0	31	0	0	0	
0	0	0	0	0	0	0	86	0	0	86	0	0	0	0	
89	0	0	0	0	89	0	0	89	89	89	0	89	0	0	
35	35	0	35	35	0	0	0	0	0	0	35	0	0	35	
0	93	0	0	0	93	0	93	93	0	93	0	93	0	0	
41	0	0	0	0	0	41	0	0	0	0	0	0	0	41	
77	0	0	77	0	77	0	77	0	77	0	0	0	0	77	
0	78	0	78	0	0	0	78	78	0	78	78	0	78	0	
0	0	0	0	0	0	0	0	0	0	93	93	0	0	0	
0	39	0	39	0	0	0	39	0	0	0	0	0	0	0	
0	0	0	0	12	0	0	0	0	0	0	0	0	12	0	
31	31	0	31	0	0	0	0	31	0	0	31	0	31	31	
0	31	31	0	0	0	0	0	0	31	0	0	0	0	0	
41	0	41	0	0	41	0	0	0	0	41	0	41	0	0	
0	83	83	0	0	83	83	0	0	0	0	83	83	0	0	
0	0	0	0	0	70	70	70	0	0	0	0	0	0	70	
0	0	0	0	0	0	0	73	0	73	0	0	73	0	0	
0	0	58	0	58	58	58	0	58	58	58	0	0	0	0	
88	0	0	88	88	0	0	0	88	0	88	88	0	88	0	
0	37	37	37	0	37	37	37	0	0	0	0	0	0	0	
0	0	55	55	0	0	0	0	55	0	0	0	0	0	0	
0	85	0	0	0	85	85	85	0	0	0	0	0	0	0	
71	0	71	0	0	0	71	0	0	0	0	0	0	0	71	
0	14	0	0	14	14	0	0	14	0	14	0	0	14	0	
0	0	0	49	49	49	49	49	0	0	0	0	0	49	49	
0	0	34	34	0	0	0	0	0	34	0	0	0	0	34	
0	0	0	0	0	51	51	51	51	0	0	0	0	0	0	
0	0	60	0	0	0	60	0	0	0	0	0	60	0	60	
0	95	0	0	0	0	95	0	0	95	95	95	0	95	0	
0	0	0	0	0	62	0	0	62	0	0	0	0	0	0	
0	15	0	0	0	0	0	15	0	0	0	15	0	0	0	
98	98	0	98	0	0	98	98	0	98	98	98	0	98	0	
0	0	0	0	0	0	15	15	0	15	0	0	0	0	0	
0	0	33	0	0	0	0	0	0	0	0	0	0	33	0	
22	22	0	0	0	0	0	0	0	0	22	0	22	0	22	
49	0	0	49	49	0	0	0	49	0	49	0	0	0	49	
0	0	0	0	0	0	0	0	0	0	93	0	0	0	0	
0	22	0	0	22	0	22	22	0	22	22	0	0	22	22	
0	0	0	0	84	0	0	84	0	84	84	0	84	0	0	
0	0	79	0	0	79	0	0	0	0	79	79	0	0	0	
0	0	75	0	75	75	75	0	75	0	0	0	0	0	75	
0	0	0	0	0	0	0	46	0	46	0	46	0	0	46	
0	0	0	0	0	0	19	19	0	19	0	0	19	0	0	
0	56	0	0	0	0	0	56	0	0	0	0	56	0	0	
0	0	0	0	61	61	0	61	0	0	61	61	0	0	0	
23	0	0	0	0	0	0	0	0	0	0	0	23	0	23	
0	0	0	0	0	0	56	0	56	0	0	56	56	56	0	
45	45	45	0	0	0	0	45	0	45	45	0	0	0	0	
0	0	53	0	53	0	53	53	0	0	53	0	0	0	53	
14	14	0	0	0	0	0	0	0	14	0	0	0	0	14	
11	0	0	11	0	0	0	0	0	0	11	0	0	0	0	
0	0	0	0	71	0	71	0	0	0	0	0	0	0	0	
33	0	0	0	0	0	33	0	0	0	33	0	0	0	0	
55	0	0	55	0	0	0	0	0	55	0	0	0	0	0	
88	88	0	0	88	0	0	0	88	0	0	0	0	88	88	
0	68	0	0	68	0	68	0	0	0	0	0	0	0	68	
97	0	97	0	0	97	0	0	0	97	97	0	0	97	0	
0	52	0	0	52	0	52	0	0	0	0	0	52	0	0	
14	0	0	0	0	0	14	0	0	0	14	14	14	0	0	
0	48	0	0	48	48	0	48	0	0	0	0	0	0	0	
58	0	58	0	58	0	0	0	58	0	58	0	0	0	0	
98	98	98	0	98	0	0	0	0	0	0	0	0	98	98	
0	0	0	0	0	34	34	0	34	34	0	0	34	34	0	
0	90	0	90	0	90	0	0	90	90	0	90	0	0	0	
0	0	0	77	77	0	0	77	0	0	0	77	0	77	77	
0	79	0	0	0	0	79	79	0	0	0	0	0	79	0	
0	0	0	32	0	0	0	0	0	0	0	32	0	0	0	
0	0	0	57	57	57	0	0	57	57	0	0	0	0	0	
0	0	21	21	0	0	0	0	21	21	0	21	21	21	21	
0	20	0	0	0	0	0	0	0	0	20	20	0	0	20	
0	50	0	50	0	50	50	0	50	50	50	50	50	0	50	
0	0	61	61	61	0	61	61	0	0	0	0	0	61	0	
0	0	0	0	47	47	47	0	0	0	47	0	47	47	0	
0	0	21	0	0	0	21	0	21	0	0	0	21	0	0	
0	50	50	50	0	0	0	0	50	50	0	0	0	50	0	
75	0	0	0	75	0	0	0	0	0	0	0	75	0	0	
0	0	10	0	0	0	0	0	0	0	0	0	0	10	0	
0	0	0	0	0	0	68	68	68	68	0	0	0	0	0	
15	15	15	0	0	0	15	0	0	0	0	0	15	15	0	
0	14	14	0	14	14	0	0	0	0	0	0	14	0	0	
0	0	0	62	62	62	0	0	0	62	62	0	0	0	0	
0	0	22	0	22	0	0	22	0	0	22	22	0	0	0	
66	0	0	0	0	0	0	0	0	66	0	66	0	66	0	
23	0	0	0	23	0	0	23	0	0	0	0	23	0	23	
0	0	47	47	47	47	0	0	47	0	47	47	0	0	47	
0	0	0	0	39	0	39	0	0	0	0	0	0	0	39	
0	0	0	61	0	61	0	0	0	61	0	0	61	0	0	
0	61	61	0	0	0	61	61	0	61	61	61	0	0	61	
0	88	0	0	0	0	88	0	88	0	88	88	0	0	0	
0	0	38	0	0	0	0	0	0	0	38	38	0	38	0	
0	84	0	0	0	0	0	0	0	84	84	0	0	84	84	
0	0	0	47	0	0	0	47	0	0	0	0	47	0	0	
0	0	0	0	0	0	25	25	25	0	0	0	0	0	0	
0	0	24	0	0	0	0	0	0	24	0	0	0	24	0	
0	0	0	89	89	0	0	0	89	0	0	89	0	0	89	
0	42	0	0	0	42	0	0	42	42	0	42	0	0	0	
0	0	0	0	0	33	0	33	33	0	0	0	0	0	0	
0	65	0	65	65	0	0	65	65	0	0	0	0	0	65	
0	0	0	84	84	0	0	0	84	0	84	84	0	84	0	
0	28	0	0	0	0	0	0	0	0	0	28	0	0	0	
0	26	0	0	0	0	0	26	0	0	26	0	0	0	26	
0	0	0	0	0	0	0	0	0	89	0	89	0	89	0	
0	0	0	51	0	51	0	51	0	51	51	0	0	0	51	
65	0	65	0	0	0	65	0	0	0	65	0	65	0	0	
16	0	0	0	0	0	16	0	0	0	0	16	0	0	16	
44	0	0	44	0	0	0	0	0	44	44	0	0	0	0	
64	0	64	0	0	0	64	64	0	0	0	0	0	0	0	
49	0	49	0	0	0	0	49	0	49	49	0	49	0	0	
0	0	0	0	0	13	0	0	13	13	0	13	13	0	13	
0	0	0	0	0	17	0	0	0	0	0	0	17	0	0	
0	0	0	0	0	0	0	18	0	0	0	0	0	0	0	
0	0	60	0	60	0	0	60	0	0	0	60	0	60	0	
0	94	0	0	0	0	94	94	0	0	94	0	0	94	94	
89	0	89	0	89	89	0	0	0	0	0	0	89	0	89	
48	48	0	0	0	0	0	0	0	48	48	0	48	0	48	
0	0	0	0	51	0	0	0	51	0	0	51	51	0	0	
0	0	0	0	0	0	0	55	55	0	0	0	0	0	0	
15	15	0	0	0	15	15	0	0	0	0	0	0	0	0	
0	0	0	0	0	64	64	0	0	0	0	0	0	64	0	
0	81	0	81	0	0	81	0	0	0	0	0	0	81	81	
0	0	0	72	0	0	0	0	72	0	0	0	72	0	0	
0	27	0	27	27	27	0	0	0	27	0	0	0	27	0	
0	81	81	0	0	0	81	0	0	0	0	0	0	81	0	
0	46	0	0	0	0	0	0	0	0	46	46	0	0	0	
0	0	0	0	0	0	0	0	41	41	41	41	0	0	0	
47	0	47	47	0	0	47	0	0	47	0	47	0	47	0	
0	0	35	0	0	0	0	0	35	0	0	35	0	35	0	
27	27	0	0	27	0	27	0	0	0	0	0	0	27	27	
98	0	98	98	0	0	0	0	98	98	0	98	0	0	0	
0	0	0	0	0	29	0	0	29	29	0	29	0	0	0	
0	0	0	0	88	0	88	0	0	0	88	0	0	88	88	
0	51	51	0	0	0	51	0	51	0	51	0	0	0	51	
90	90	0	0	0	0	0	0	0	0	90	0	0	90	0	
21	21	21	0	0	0	0	21	0	0	0	0	0	0	0	
0	0	0	0	0	0	0	0	0	0	0	0	64	64	0	
0	0	68	0	0	0	68	68	0	0	68	0	0	0	68	
94	0	0	0	94	94	94	94	0	0	94	0	0	94	0	
0	0	0	45	0	45	0	45	0	0	0	0	0	0	0	
0	0	0	0	0	64	0	64	0	0	64	0	64	0	64	
0	0	0	0	87	87	87	0	0	0	0	0	0	0	0	
0	0	0	0	0	0	0	69	0	0	0	0	69	0	0	
0	0	0	81	81	0	0	0	81	0	0	81	81	0	81	
0	92	0	0	0	0	0	92	0	0	0	0	0	0	92	
35	0	0	35	0	0	0	0	0	35	35	0	35	0	0	
77	0	0	0	0	0	0	0	0	0	0	0	0	0	0	
0	0	0	0	41	41	41	41	0	0	41	0	41	41	0	
0	57	0	0	57	0	0	57	0	0	0	57	0	0	0	
0	0	92	0	0	92	0	0	0	0	0	0	0	0	92	
0	67	0	0	0	0	0	0	67	0	67	0	67	0	0	
0	69	69	69	0	0	69	0	0	69	0	0	0	0	0	
0	39	0	39	0	0	39	39	0	0	0	0	39	0	39	
0	0	0	64	0	64	0	64	0	0	0	0	0	64	0	
0	0	94	94	0	94	94	0	94	0	0	0	0	0	0	
0	0	0	0	66	66	0	66	0	66	66	66	0	0	66	
0	0	37	0	0	0	0	0	37	37	0	0	0	0	0	
0	0	0	83	0	0	0	0	0	0	0	0	0	83	83	
0	0	50	0	50	0	0	0	50	0	50	50	0	50	50	
0	50	50	0	50	50	0	50	0	50	0	0	50	0	50	
10	0	0	10	0	10	0	0	0	0	0	0	0	0	0	
0	35	0	0	0	0	0	0	35	0	0	35	0	0	0	
96	96	96	0	0	96	0	0	0	0	0	0	0	96	0	
25	0	0	0	0	0	0	0	0	0	0	0	0	0	0	
48	0	0	0	0	0	48	0	0	48	0	48	0	48	0	
0	48	0	0	48	0	0	0	0	0	0	0	48	48	0	
0	0	81	0	81	0	0	81	81	81	81	81	81	81	0	
15	0	0	15	0	0	15	15	0	0	0	0	15	0	0	
0	0	0	0	0	51	0	0	0	51	0	0	0	51	0	
0	0	38	38	0	0	38	0	0	0	0	0	0	38	0	
0	0	0	0	0	0	66	0	0	0	0	0	66	0	0	
0	0	0	0	0	0	0	0	0	0	92	0	92	0	0	
69	0	0	0	69	0	0	0	69	0	69	0	0	0	0	
0	0	75	0	0	0	0	0	0	0	0	75	0	0	75	
0	45	0	0	45	45	45	45	45	0	0	0	45	0	45	
0	10	0	0	0	0	10	10	10	0	10	0	10	0	0	
98	98	0	0	0	0	98	0	0	98	0	98	0	0	98	
0	83	0	0	0	0	0	0	0	0	83	0	83	0	0	
0	89	0	0	0	89	89	0	89	89	0	0	0	89	89	
0	77	0	0	77	0	0	77	77	0	77	77	77	0	77	
0	97	97	0	0	0	0	0	0	97	97	0	0	0	0	
0	0	25	0	25	0	0	0	0	0	0	0	0	25	25	
0	0	50	0	50	0	50	0	0	0	50	0	0	50	0	
11	0	0	0	11	0	0	0	11	0	0	0	0	0	0	
0	0	0	67	0	0	67	0	0	0	0	0	67	0	67	
0	0	0	0	49	0	49	0	49	0	0	49	49	49	0	
0	0	0	0	0	0	62	62	62	0	62	62	0	0	62	
0	0	0	0	66	66	0	0	0	0	0	66	0	0	66	
0	0	12	0	0	0	0	0	0	0	0	12	12	0	12	
0	0	0	0	0	0	0	34	0	34	0	0	0	34	0	
0	38	0	38	0	0	0	0	38	0	38	0	38	0	0	
80	80	0	0	0	80	0	0	0	0	0	80	0	80	0	
0	0	30	0	0	30	0	30	30	0	30	30	30	0	30	
0	75	75	75	0	0	75	75	0	0	0	0	75	0	0	
22	22	0	22	0	0	22	22	0	0	0	22	0	0	0	
0	0	0	0	62	62	0	0	0	0	0	62	62	0	0	
0	0	0	20	0	0	20	0	20	20	0	20	0	0	20	
0	0	0	0	0	16	0	0	0	0	0	0	16	0	16	
0	0	0	97	0	97	97	0	0	0	0	97	97	97	0	
0	65	65	0	0	0	0	0	65	65	65	0	65	0	0	
0	0	38	0	38	38	0	0	38	0	38	0	0	0	38	
0	0	0	0	0	92	92	92	0	92	0	0	0	0	0	
0	0	71	0	71	71	0	0	0	0	0	0	71	0	0	
42	0	0	42	42	0	0	0	42	0	0	0	0	0	42	
0	0	98	0	0	0	0	0	0	0	98	98	0	0	0	
95	0	0	0	0	95	0	0	95	95	0	0	0	95	0	
0	0	0	0	0	48	0	0	0	48	0	48	0	0	48	
0	22	0	0	0	22	22	0	0	0	0	0	0	0	0	
45	45	0	0	0	0	0	0	0	0	0	0	45	0	0	
0	0	0	0	25	0	25	25	0	0	0	0	0	0	25	
57	0	57	0	0	0	57	0	57	0	0	0	0	0	0	
26	0	0	0	26	0	0	0	26	0	0	0	0	26	0	
0	58	58	58	0	0	58	0	0	0	0	58	0	58	0	
94	0	0	0	0	0	0	0	94	94	0	94	0	0	94	
0	78	0	78	0	78	78	0	0	78	0	0	0	0	0	
0	72	72	72	72	0	72	0	72	0	0	0	0	0	0	
0	0	63	0	63	0	0	63	0	0	0	0	0	0	0	
0	13	0	13	0	0	0	0	0	13	0	0	13	0	0	
0	84	0	84	84	0	84	0	84	0	0	0	0	0	84	
0	22	0	22	0	22	22	22	0	0	0	0	22	0	0	
0	0	20	20	0	20	0	0	0	0	20	0	20	0	0	
0	0	0	42	0	0	0	42	0	42	0	42	0	0	0	
0	0	0	0	26	26	26	0	0	0	26	26	26	0	0	
0	0	0	0	0	65	65	65	0	0	65	65	65	0	65	
30	0	0	0	0	0	0	30	0	30	30	0	0	30	0	
0	0	16	16	0	0	0	0	16	0	0	0	0	0	0	
23	23	23	23	0	0	0	0	0	0	0	0	0	0	0	
0	0	52	0	0	52	0	0	0	52	0	0	0	0	0	
0	0	0	0	34	0	0	34	34	34	0	0	34	0	0	
55	0	0	55	0	0	55	55	55	0	0	0	55	55	55	
80	0	0	0	80	80	0	0	0	0	0	0	0	80	0	
0	39	0	39	39	0	0	0	39	0	39	0	39	0	0	
0	36	0	0	0	36	0	0	0	0	0	36	0	0	36	
53	0	0	0	0	0	0	53	0	53	53	0	0	0	0	
0	85	85	0	0	85	0	0	0	0	0	0	0	0	0	
25	25	25	0	0	0	25	25	25	0	0	0	25	0	25	
0	0	96	0	96	0	96	0	96	96	0	96	96	0	0	
0	0	52	52	0	0	0	52	52	0	52	0	52	0	52	
13	0	13	0	0	0	0	13	0	13	0	0	0	13	0	
0	0	10	0	0	10	10	10	0	0	0	0	10	0	10	
0	84	0	84	0	84	0	0	84	84	84	0	84	0	0	
0	0	91	91	0	0	0	91	0	91	0	0	0	0	0	
0	0	0	0	30	30	0	0	0	0	0	30	0	30	0	
0	0	0	0	83	0	83	0	83	83	0	83	0	83	0	
0	16	16	0	0	16	0	0	0	0	0	0	16	0	16	
0	0	0	0	0	0	0	0	0	0	0	96	96	0	0	
0	19	0	19	19	0	0	19	0	0	0	19	0	0	19	
69	0	0	0	0	0	0	0	69	0	0	69	0	69	0	
30	30	0	30	30	0	30	0	30	0	0	0	0	0	0	
0	0	0	22	22	0	0	0	22	0	22	0	0	0	0	
0	42	0	0	0	0	0	0	0	0	0	0	42	0	42	
0	0	0	0	0	91	0	91	0	0	91	0	0	0	91	
81	0	0	0	81	0	0	0	0	0	0	0	0	0	81	
0	35	0	0	35	0	35	0	35	0	0	0	35	0	0	
37	0	0	37	37	0	0	0	0	37	0	37	0	0	37	
28	0	0	0	0	0	0	0	28	0	0	0	28	0	28	
28	0	0	28	28	0	28	28	28	0	28	0	0	0	0	
0	0	0	0	0	22	22	22	0	22	0	0	0	22	22	
35	0	0	35	0	35	35	35	0	0	35	35	35	0	0	
54	54	0	0	54	54	0	0	54	0	54	0	0	54	54	
0	0	0	94	0	0	0	0	0	94	0	0	94	94	0	
57	57	57	57	57	0	57	0	0	0	0	0	0	0	0	
0	0	96	0	0	0	0	0	0	0	0	96	0	96	0	
0	0	0	51	0	0	0	0	0	0	0	0	0	0	51	
0	0	0	48	48	0	48	0	0	0	0	48	0	48	0	
18	18	0	0	18	18	0	0	0	0	18	0	18	0	0	
0	0	0	0	51	0	0	51	0	0	51	51	0	51	51	
0	60	0	60	60	60	0	0	0	60	0	60	60	60	0	
0	19	0	19	0	0	0	0	0	0	19	0	0	19	19	
0	93	0	93	93	0	0	0	93	93	0	0	93	93	93	
0	0	0	23	0	0	0	0	0	23	0	23	23	0	0	
0	0	49	49	0	0	0	49	49	0	0	0	49	0	0	
0	0	0	0	0	21	0	0	0	0	0	21	0	0	0	
0	0	0	0	0	0	0	83	0	83	83	0	0	0	0	
19	0	19	0	19	19	19	0	19	19	0	19	19	0	0	
0	0	0	0	0	0	54	54	54	54	54	54	54	0	54	
0	0	0	0	0	0	0	0	0	0	0	18	0	0	0	
80	80	0	0	0	0	0	80	0	0	80	80	0	0	0	
90	90	0	0	0	90	0	0	0	0	0	0	90	0	0	
0	0	0	0	0	0	0	80	0	80	0	0	0	80	0	
0	0	67	0	0	0	0	67	0	0	67	0	67	0	0	
0	49	0	0	0	0	0	0	0	0	0	0	49	0	0	
0	0	0	0	0	0	0	0	0	0	0	0	0	93	0	
98	0	98	98	0	0	98	0	0	98	0	98	98	98	98	
0	0	63	0	0	0	0	0	63	0	0	0	63	63	0	
0	17	17	17	0	17	0	0	0	0	0	0	17	17	0	
22	0	0	0	22	0	0	0	0	22	22	0	22	0	0	
0	0	0	39	0	0	0	39	39	0	39	39	0	0	0	
0	0	43	0	0	0	0	0	0	43	0	0	0	0	43	
0	0	0	56	56	0	56	0	56	0	0	56	56	0	56	
0	0	0	0	0	0	0	0	0	0	0	38	38	38	0	
87	0	0	0	0	0	87	0	0	0	0	87	87	87	0	
0	0	0	81	81	0	0	81	81	0	0	0	0	0	0	
27	0	0	27	27	0	0	27	0	27	0	0	0	0	0	
0	33	0	0	0	33	0	33	0	33	0	33	0	0	0	
0	0	52	0	0	52	52	0	0	0	0	52	0	0	52	
0	35	0	35	0	0	35	35	0	0	0	0	35	0	0	
21	0	0	0	0	21	0	21	0	0	21	0	21	0	0	
59	0	59	0	59	0	0	0	0	0	0	0	0	0	0	
0	47	47	0	0	0	0	47	47	0	47	47	0	47	0	
0	0	0	0	0	0	0	72	0	0	0	0	0	0	0	
0	0	0	0	44	0	44	0	0	0	44	0	0	0	44	
18	0	18	18	18	0	18	0	18	0	18	0	18	18	0	
0	71	0	0	0	0	0	71	0	0	0	0	0	0	0	
0	0	0	29	29	0	29	0	0	29	0	0	0	0	0	
0	0	14	0	0	0	0	0	14	14	0	0	0	0	0	
0	54	0	0	0	0	0	54	0	0	0	0	0	54	0	
0	65	0	65	0	0	65	0	65	0	0	0	0	65	0	
70	0	0	70	0	0	0	0	70	70	0	70	0	70	0	
0	0	0	24	24	0	0	0	24	0	0	0	0	24	24	
22	0	0	22	0	0	22	22	0	0	0	22	22	0	0	
0	0	0	0	25	0	0	25	0	25	0	0	0	0	0	
52	0	0	0	0	52	0	0	0	0	0	0	0	0	0	
0	0	92	0	92	92	0	0	0	0	0	92	0	0	0	
0	23	0	0	0	0	23	0	0	23	23	0	0	0	23	
31	0	0	0	0	31	0	0	0	0	0	0	0	31	0	
0	0	0	0	0	0	0	0	83	0	0	83	83	0	83	
0	0	0	0	0	79	0	79	0	0	0	0	79	79	0	
0	0	0	0	39	0	39	39	39	0	0	39	39	0	0	
0	50	0	50	0	0	50	50	0	50	50	50	50	0	50	
0	23	0	23	0	23	0	0	0	0	0	0	0	0	23	
0	0	0	28	0	28	0	0	0	28	0	0	28	0	28	
0	52	0	52	52	0	0	0	52	0	0	0	0	0	0	
0	75	75	75	75	0	0	75	0	75	0	0	0	0	0	
0	0	77	0	0	0	0	0	0	0	0	0	77	0	0	
0	0	0	0	0	0	0	15	0	15	0	0	15	0	0	
0	0	0	0	0	39	0	0	0	39	0	39	0	0	0	
0	0	0	0	95	95	95	0	0	0	0	0	95	95	0	
0	0	0	0	0	10	0	10	10	0	0	0	0	0	10	
0	60	0	60	0	0	0	60	0	0	0	0	0	60	0	
84	0	0	0	0	84	0	84	0	0	84	0	0	0	84	
0	77	0	0	0	0	0	0	77	77	77	0	0	0	77	
0	0	0	0	31	31	31	0	0	0	0	0	31	0	0	
0	0	0	0	0	56	0	0	0	56	56	0	0	0	0	
60	60	60	0	60	0	0	0	0	0	0	60	0	0	0	
0	0	86	0	0	0	86	86	0	86	0	86	0	86	86	
0	30	30	0	0	30	0	0	0	0	0	30	0	30	0	
35	35	0	0	0	0	0	0	0	0	35	0	0	35	0	
0	0	84	0	84	84	0	0	0	0	0	0	0	84	0	
0	0	69	0	0	0	0	69	0	0	0	0	0	69	0	
0	0	0	0	0	0	0	0	0	73	0	0	73	0	73	
0	0	58	0	0	0	58	0	0	0	0	0	0	58	0	
0	0	20	0	20	0	0	0	0	20	0	0	0	0	0	
0	0	0	28	0	0	28	28	0	28	0	0	0	0	0	
0	47	0	0	47	47	47	0	0	0	47	0	47	0	0	
0	0	0	0	0	0	23	23	23	23	0	0	0	23	0	
0	22	22	0	0	0	22	0	0	22	22	0	0	0	0	
0	0	84	0	84	0	84	84	0	0	0	84	84	0	0	
42	0	42	0	0	0	0	0	0	0	0	0	42	42	0	
0	0	0	0	0	0	31	31	0	0	0	0	0	0	0	
0	0	66	66	0	0	0	66	66	0	0	0	0	66	0	
0	0	0	64	64	0	0	0	0	0	0	0	64	0	0	
0	0	0	0	82	0	0	0	0	0	0	0	82	0	0	
0	0	0	0	55	0	0	0	0	55	55	0	55	0	0	
0	0	0	0	92	0	0	92	0	92	92	92	0	0	0	
0	29	29	0	29	29	29	0	29	0	0	0	0	0	0	
43	0	0	0	0	0	0	43	0	43	43	43	43	0	0	
0	0	46	0	0	0	0	0	0	0	0	0	0	0	46	
0	0	0	0	0	0	0	0	24	24	0	24	24	0	0	
0	75	75	75	0	75	0	0	0	0	0	0	75	0	75	
95	0	0	0	95	0	0	0	0	0	95	0	95	0	0	
82	0	0	0	82	0	0	0	0	82	0	0	0	0	0	
0	0	0	0	0	0	0	0	21	0	21	0	0	21	0	
0	33	33	0	33	33	0	0	33	0	0	0	0	33	0	
0	0	0	0	64	0	64	0	64	0	0	64	0	0	0	
45	45	45	45	0	0	0	0	45	0	0	0	0	45	0	
0	0	0	59	0	0	59	0	0	59	0	0	59	0	0	
0	0	0	0	25	25	0	25	0	0	25	0	0	0	0	
0	64	64	0	64	0	0	64	0	0	0	0	0	0	64	
0	0	13	0	0	13	0	0	13	0	13	0	0	13	0	
0	0	0	0	0	0	0	89	89	0	89	0	0	0	0	
0	0	0	0	22	0	0	0	22	0	0	0	0	0	0	
0	0	0	19	0	0	0	0	19	0	19	0	0	0	0	
0	0	0	0	0	0	0	0	0	0	38	0	0	0	38	
17	0	0	0	0	17	0	17	0	0	0	17	0	0	0	
71	0	0	0	0	0	0	0	0	71	71	71	71	0	71	
0	0	0	0	58	0	58	0	0	58	0	0	0	0	58	
0	0	52	0	0	52	0	0	0	52	0	0	52	0	0	
70	0	70	0	70	0	0	0	0	0	0	0	0	0	0	
0	20	0	0	20	0	20	0	0	0	0	0	20	0	0	
